     Program PWSCF v.7.1 starts on 30Jan2023 at 11:13:17

     Waiting for input...
     Reading input from standard input

     Current dimensions of program PWSCF are:
     Max number of different atomic species (ntypx) = 10
     Max number of k-points (npk) =  40000
     Max angular momentum in pseudopotentials (lmaxx) =  4
     file W.pbe-spn-kjpaw_psl.1.0.0.UPF: wavefunction(s)  6S 5P 5D renormalized
     file S.pbe-n-kjpaw_psl.1.0.0.UPF: wavefunction(s)  3S 3P renormalized
     file Se.pbe-dn-kjpaw_psl.1.0.0.UPF: wavefunction(s)  4S 4P 3D renormalized
     Message from routine setup:
     using ibrav=0 with symmetry is DISCOURAGED, use correct ibrav instead

     R & G space division:  proc/nbgrp/npool/nimage =      12
     Subspace diagonalization in iterative solution of the eigenvalue problem:
     a serial algorithm will be used

     Using Slab Decomposition

     bravais-lattice index     =            0
     lattice parameter (alat)  =       6.0471  a.u.
     unit-cell volume          =    1496.1227 (a.u.)^3
     number of atoms/cell      =            3
     number of atomic types    =            3
     number of electrons       =        36.00
     number of Kohn-Sham states=           18
     kinetic-energy cutoff     =      60.0000  Ry
     charge density cutoff     =     240.0000  Ry
     scf convergence threshold =      1.0E-08
     mixing beta               =       0.5000
     number of iterations used =            8  plain     mixing
     Exchange-correlation= SLA  PW   PBX  PBC
                           (   1   4   3   4   0   0   0)

     celldm(1)=   6.047124  celldm(2)=   0.000000  celldm(3)=   0.000000
     celldm(4)=   0.000000  celldm(5)=   0.000000  celldm(6)=   0.000000

     crystal axes: (cart. coord. in units of alat)
               a(1) = (   1.000000   0.000000   0.000000 )
               a(2) = (  -0.500000   0.866025   0.000000 )
               a(3) = (   0.000000   0.000000   7.812500 )

     reciprocal axes: (cart. coord. in units 2 pi/alat)
               b(1) = (  1.000000  0.577350 -0.000000 )
               b(2) = (  0.000000  1.154701  0.000000 )
               b(3) = (  0.000000 -0.000000  0.128000 )

     PseudoPot. # 1 for W  read from file:
     /home/mainadmin/research/danu/pseudo/W.pbe-spn-kjpaw_psl.1.0.0.UPF
     MD5 check sum: 03c3df5b60893f488392c7401945500a
     Pseudo is Projector augmented-wave + core cor, Zval = 14.0
     Generated using &quot;atomic&quot; code by A. Dal Corso  v.6.2.2
     Shape of augmentation charge: PSQ
     Using radial grid of 1273 points,  6 beta functions with:
                l(1) =   0
                l(2) =   0
                l(3) =   1
                l(4) =   1
                l(5) =   2
                l(6) =   2
     Q(r) pseudized with 0 coefficients

     PseudoPot. # 2 for S  read from file:
     /home/mainadmin/research/danu/pseudo/S.pbe-n-kjpaw_psl.1.0.0.UPF
     MD5 check sum: fb45dfebcf3e72a4e1bd4a866ec2e262
     Pseudo is Projector augmented-wave + core cor, Zval =  6.0
     Generated using &quot;atomic&quot; code by A. Dal Corso  v.6.3
     Shape of augmentation charge: PSQ
     Using radial grid of 1151 points,  6 beta functions with:
                l(1) =   0
                l(2) =   0
                l(3) =   1
                l(4) =   1
                l(5) =   2
                l(6) =   2
     Q(r) pseudized with 0 coefficients

     PseudoPot. # 3 for Se read from file:
     /home/mainadmin/research/danu/pseudo/Se.pbe-dn-kjpaw_psl.1.0.0.UPF
     MD5 check sum: ac240dd2bae32a30e0bf3a38df9c8785
     Pseudo is Projector augmented-wave + core cor, Zval = 16.0
     Generated using &quot;atomic&quot; code by A. Dal Corso  v.6.3
     Shape of augmentation charge: PSQ
     Using radial grid of 1211 points,  6 beta functions with:
                l(1) =   0
                l(2) =   0
                l(3) =   1
                l(4) =   1
                l(5) =   2
                l(6) =   2
     Q(r) pseudized with 0 coefficients

     atomic species   valence    mass     pseudopotential
        W             14.00   183.84000     W ( 1.00)
        S              6.00    32.06500     S ( 1.00)
        Se            16.00    78.96000     Se( 1.00)

      6 Sym. Ops. (no inversion) found

   Cartesian axes

     site n.     atom                  positions (alat units)
         1           Se  tau(   1) = (   0.5000000   0.2886751   4.5312500  )
         2           W   tau(   2) = (  -0.0000000   0.5773503   3.9062500  )
         3           S   tau(   3) = (   0.5000000   0.2886751  -4.5312500  )

     number of k points=    40
                       cart. coord. in units 2pi/alat
        k(    1) = (   0.0000000   0.0000000   0.0000000), wk =   0.0055402
        k(    2) = (   0.0000000   0.0607737   0.0000000), wk =   0.0332410
        k(    3) = (   0.0000000   0.1215474   0.0000000), wk =   0.0332410
        k(    4) = (   0.0000000   0.1823211   0.0000000), wk =   0.0332410
        k(    5) = (   0.0000000   0.2430949   0.0000000), wk =   0.0332410
        k(    6) = (   0.0000000   0.3038686   0.0000000), wk =   0.0332410
        k(    7) = (   0.0000000   0.3646423   0.0000000), wk =   0.0332410
        k(    8) = (   0.0000000   0.4254160   0.0000000), wk =   0.0332410
        k(    9) = (   0.0000000   0.4861897   0.0000000), wk =   0.0332410
        k(   10) = (   0.0000000   0.5469634   0.0000000), wk =   0.0332410
        k(   11) = (   0.0526316   0.0911606   0.0000000), wk =   0.0332410
        k(   12) = (   0.0526316   0.1519343   0.0000000), wk =   0.0664820
        k(   13) = (   0.0526316   0.2127080   0.0000000), wk =   0.0664820
        k(   14) = (   0.0526316   0.2734817   0.0000000), wk =   0.0664820
        k(   15) = (   0.0526316   0.3342554   0.0000000), wk =   0.0664820
        k(   16) = (   0.0526316   0.3950291   0.0000000), wk =   0.0664820
        k(   17) = (   0.0526316   0.4558028   0.0000000), wk =   0.0664820
        k(   18) = (   0.0526316   0.5165766   0.0000000), wk =   0.0664820
        k(   19) = (   0.0526316   0.5773503   0.0000000), wk =   0.0332410
        k(   20) = (   0.1052632   0.1823211   0.0000000), wk =   0.0332410
        k(   21) = (   0.1052632   0.2430949   0.0000000), wk =   0.0664820
        k(   22) = (   0.1052632   0.3038686   0.0000000), wk =   0.0664820
        k(   23) = (   0.1052632   0.3646423   0.0000000), wk =   0.0664820
        k(   24) = (   0.1052632   0.4254160   0.0000000), wk =   0.0664820
        k(   25) = (   0.1052632   0.4861897   0.0000000), wk =   0.0664820
        k(   26) = (   0.1052632   0.5469634   0.0000000), wk =   0.0664820
        k(   27) = (   0.1578947   0.2734817   0.0000000), wk =   0.0332410
        k(   28) = (   0.1578947   0.3342554   0.0000000), wk =   0.0664820
        k(   29) = (   0.1578947   0.3950291   0.0000000), wk =   0.0664820
        k(   30) = (   0.1578947   0.4558028   0.0000000), wk =   0.0664820
        k(   31) = (   0.1578947   0.5165766   0.0000000), wk =   0.0664820
        k(   32) = (   0.1578947   0.5773503   0.0000000), wk =   0.0332410
        k(   33) = (   0.2105263   0.3646423   0.0000000), wk =   0.0332410
        k(   34) = (   0.2105263   0.4254160   0.0000000), wk =   0.0664820
        k(   35) = (   0.2105263   0.4861897   0.0000000), wk =   0.0664820
        k(   36) = (   0.2105263   0.5469634   0.0000000), wk =   0.0664820
        k(   37) = (   0.2631579   0.4558028   0.0000000), wk =   0.0332410
        k(   38) = (   0.2631579   0.5165766   0.0000000), wk =   0.0664820
        k(   39) = (   0.2631579   0.5773503   0.0000000), wk =   0.0332410
        k(   40) = (   0.3157895   0.5469634   0.0000000), wk =   0.0332410

     Check: negative core charge=   -0.000001

     Initial potential from superposition of free atoms

     starting charge      35.9993, renormalised to      36.0000

     negative rho (up, down):  5.774E-04 0.000E+00
     Starting wfcs are   26 randomized atomic wfcs
     Checking if some PAW data can be deallocated...

     Self-consistent Calculation

     iteration #  1     ecut=    60.00 Ry     beta= 0.50
     Davidson diagonalization with overlap
     ethr =  1.00E-02,  avg # of iterations =  2.0

     Threshold (ethr) on eigenvalues was too large:
     Diagonalizing with lowered threshold

     Davidson diagonalization with overlap
     ethr =  4.60E-04,  avg # of iterations =  2.0

     negative rho (up, down):  1.139E-03 0.000E+00

     total energy              =   -1228.30595988 Ry
     estimated scf accuracy    <       0.16842505 Ry

[...]

     total energy              =   -1228.37928065 Ry
     estimated scf accuracy    <       0.00000001 Ry

     iteration # 27     ecut=    60.00 Ry     beta= 0.50
     Davidson diagonalization with overlap
     ethr =  4.05E-11,  avg # of iterations =  3.2

     negative rho (up, down):  7.472E-04 0.000E+00

     End of self-consistent calculation

          k = 0.0000 0.0000 0.0000 ( 11811 PWs)   bands (ev):

   -75.2381 -48.4207 -48.4207 -48.4173 -48.4159 -48.4159 -39.4088 -39.1503
   -39.1503 -14.9932 -13.8032  -6.8568  -3.7196  -2.1969  -1.8502  -1.8502
    -0.7804  -0.7804

[...]

          k = 0.3158 0.5470 0.0000 ( 11678 PWs)   bands (ev):

   -75.2227 -48.4189 -48.4183 -48.4163 -48.4157 -48.4137 -39.3625 -39.3501
   -39.3214 -12.7580 -12.0641  -5.5021  -5.2197  -4.3500  -4.0059  -3.8747
    -3.4914  -0.9318

     highest occupied level (ev):    -0.7804

!    total energy              =   -1228.37928065 Ry
     total all-electron energy =    -37944.469711 Ry
     estimated scf accuracy    <          3.5E-09 Ry

     The total energy is the sum of the following terms:
     one-electron contribution =   -2749.50476052 Ry
     hartree contribution      =    1372.31296791 Ry
     xc contribution           =     -73.23286750 Ry
     ewald contribution        =    1014.62638954 Ry
     one-center paw contrib.   =    -792.58101009 Ry

     convergence has been achieved in  27 iterations

     Writing all to output data dir ./work/WSSe.save/

     General routines

     Parallel routines

   This run was terminated on:  11:14: 8  30Jan2023

   JOB DONE.